n = 10
Q1 = [0 50 13 32 6 42 9 15 0 5; 0 0 39 10 33 0 18 0 35 40; 0 0 0 0 35 0 22 10 37 15; 0 0 0 0 0 40 0 45 0 34; 0 0 0 0 0 27 30 26 29 0; 0 0 0 0 0 0 7 35 36 38; 0 0 0 0 0 0 0 0 38 0; 0 0 0 0 0 0 0 0 41 0; 0 0 0 0 0 0 0 0 0 23; 0 0 0 0 0 0 0 0 0 0]
Q2 = [0.0 0.0 47.0 0.0 49.0 5.0 42.0 44.0 0.0 47.0; 0.0 0.0 5.0 43.0 7.0 0.0 34.0 0.0 5.0 5.0; 0.0 0.0 0.0 0.0 12.0 0.0 36.0 43.0 8.0 48.0; 0.0 0.0 0.0 0.0 0.0 5.0 0.0 1.0 0.0 8.0; 0.0 0.0 0.0 0.0 0.0 7.0 10.0 16.0 18.0 0.0; 0.0 0.0 0.0 0.0 0.0 0.0 45.0 2.0 9.0 6.0; 0.0 0.0 0.0 0.0 0.0 0.0 0.0 0.0 10.0 0.0; 0.0 0.0 0.0 0.0 0.0 0.0 0.0 0.0 9.0 0.0; 0.0 0.0 0.0 0.0 0.0 0.0 0.0 0.0 0.0 40.0; 0.0 0.0 0.0 0.0 0.0 0.0 0.0 0.0 0.0 0.0]
Q3 = [0 4 2 1 4 4 4 3 63 11; 0 0 5 5 17 63 10 63 23 1; 0 0 0 63 7 63 3 1 16 0; 0 0 0 0 63 5 63 8 63 10; 0 0 0 0 0 7 2 4 12 63; 0 0 0 0 0 0 0 25 7 18; 0 0 0 0 0 0 0 63 7 63; 0 0 0 0 0 0 0 0 8 63; 0 0 0 0 0 0 0 0 0 0; 0 0 0 0 0 0 0 0 0 0]
